28 50 33 81 34 3 54 4 73 58 
94 96 95 43 57 41 75 56 74 72 21 
98 37 76 6 85 5 17 60 
89 27 69 31 88 20 51 35 26 
7 18 83 61 99 97 91 86 14 
52 47 36 8 48 10 63 90 1 
71 87 55 25 80 
92 2 15 40 53 12 24 29 
46 45 82 84 13 59 93 
32 65 9 66 
19 62 11 64 49 16 
39 23 67 22 68 70 
42 44 38 100 
30 79 78 77 

